c A temporal KB for measuring ID
p wcnf 325 285 12
11 1 41 0
11 -1 3 0
11 -1 -4 0
11 -41 3 0
11 -41 4 0
11 5 42 0
11 -5 7 0
11 -5 -8 0
11 -42 7 0
11 -42 8 0
11 9 43 0
11 -9 11 0
11 -9 -12 0
11 -43 11 0
11 -43 12 0
11 13 44 0
11 -13 15 0
11 -13 -16 0
11 -44 15 0
11 -44 16 0
11 17 45 0
11 -17 19 0
11 -17 -20 0
11 -45 19 0
11 -45 20 0
11 21 46 0
11 -21 23 0
11 -21 -24 0
11 -46 23 0
11 -46 24 0
11 25 47 0
11 -25 27 0
11 -25 -28 0
11 -47 27 0
11 -47 28 0
11 29 48 0
11 -29 31 0
11 -29 -32 0
11 -48 31 0
11 -48 32 0
11 33 49 0
11 -33 35 0
11 -33 -36 0
11 -49 35 0
11 -49 36 0
11 37 50 0
11 -37 39 0
11 -37 -40 0
11 -50 39 0
11 -50 40 0
11 2 22 51 0
11 -2 4 0
11 -2 -3 0
11 -51 4 0
11 -51 3 0
11 -22 24 0
11 -22 -23 0
11 -51 24 0
11 -51 23 0
11 2 26 52 0
11 -2 4 0
11 -2 -3 0
11 -52 4 0
11 -52 3 0
11 -26 28 0
11 -26 -27 0
11 -52 28 0
11 -52 27 0
11 2 30 53 0
11 -2 4 0
11 -2 -3 0
11 -53 4 0
11 -53 3 0
11 -30 32 0
11 -30 -31 0
11 -53 32 0
11 -53 31 0
11 2 34 54 0
11 -2 4 0
11 -2 -3 0
11 -54 4 0
11 -54 3 0
11 -34 36 0
11 -34 -35 0
11 -54 36 0
11 -54 35 0
11 2 38 55 0
11 -2 4 0
11 -2 -3 0
11 -55 4 0
11 -55 3 0
11 -38 40 0
11 -38 -39 0
11 -55 40 0
11 -55 39 0
11 6 22 56 0
11 -6 8 0
11 -6 -7 0
11 -56 8 0
11 -56 7 0
11 -22 24 0
11 -22 -23 0
11 -56 24 0
11 -56 23 0
11 6 26 57 0
11 -6 8 0
11 -6 -7 0
11 -57 8 0
11 -57 7 0
11 -26 28 0
11 -26 -27 0
11 -57 28 0
11 -57 27 0
11 6 30 58 0
11 -6 8 0
11 -6 -7 0
11 -58 8 0
11 -58 7 0
11 -30 32 0
11 -30 -31 0
11 -58 32 0
11 -58 31 0
11 6 34 59 0
11 -6 8 0
11 -6 -7 0
11 -59 8 0
11 -59 7 0
11 -34 36 0
11 -34 -35 0
11 -59 36 0
11 -59 35 0
11 6 38 60 0
11 -6 8 0
11 -6 -7 0
11 -60 8 0
11 -60 7 0
11 -38 40 0
11 -38 -39 0
11 -60 40 0
11 -60 39 0
11 10 22 61 0
11 -10 12 0
11 -10 -11 0
11 -61 12 0
11 -61 11 0
11 -22 24 0
11 -22 -23 0
11 -61 24 0
11 -61 23 0
11 10 26 62 0
11 -10 12 0
11 -10 -11 0
11 -62 12 0
11 -62 11 0
11 -26 28 0
11 -26 -27 0
11 -62 28 0
11 -62 27 0
11 10 30 63 0
11 -10 12 0
11 -10 -11 0
11 -63 12 0
11 -63 11 0
11 -30 32 0
11 -30 -31 0
11 -63 32 0
11 -63 31 0
11 10 34 64 0
11 -10 12 0
11 -10 -11 0
11 -64 12 0
11 -64 11 0
11 -34 36 0
11 -34 -35 0
11 -64 36 0
11 -64 35 0
11 10 38 65 0
11 -10 12 0
11 -10 -11 0
11 -65 12 0
11 -65 11 0
11 -38 40 0
11 -38 -39 0
11 -65 40 0
11 -65 39 0
11 14 22 66 0
11 -14 16 0
11 -14 -15 0
11 -66 16 0
11 -66 15 0
11 -22 24 0
11 -22 -23 0
11 -66 24 0
11 -66 23 0
11 14 26 67 0
11 -14 16 0
11 -14 -15 0
11 -67 16 0
11 -67 15 0
11 -26 28 0
11 -26 -27 0
11 -67 28 0
11 -67 27 0
11 14 30 68 0
11 -14 16 0
11 -14 -15 0
11 -68 16 0
11 -68 15 0
11 -30 32 0
11 -30 -31 0
11 -68 32 0
11 -68 31 0
11 14 34 69 0
11 -14 16 0
11 -14 -15 0
11 -69 16 0
11 -69 15 0
11 -34 36 0
11 -34 -35 0
11 -69 36 0
11 -69 35 0
11 14 38 70 0
11 -14 16 0
11 -14 -15 0
11 -70 16 0
11 -70 15 0
11 -38 40 0
11 -38 -39 0
11 -70 40 0
11 -70 39 0
11 18 22 71 0
11 -18 20 0
11 -18 -19 0
11 -71 20 0
11 -71 19 0
11 -22 24 0
11 -22 -23 0
11 -71 24 0
11 -71 23 0
11 18 26 72 0
11 -18 20 0
11 -18 -19 0
11 -72 20 0
11 -72 19 0
11 -26 28 0
11 -26 -27 0
11 -72 28 0
11 -72 27 0
11 18 30 73 0
11 -18 20 0
11 -18 -19 0
11 -73 20 0
11 -73 19 0
11 -30 32 0
11 -30 -31 0
11 -73 32 0
11 -73 31 0
11 18 34 74 0
11 -18 20 0
11 -18 -19 0
11 -74 20 0
11 -74 19 0
11 -34 36 0
11 -34 -35 0
11 -74 36 0
11 -74 35 0
11 18 38 75 0
11 -18 20 0
11 -18 -19 0
11 -75 20 0
11 -75 19 0
11 -38 40 0
11 -38 -39 0
11 -75 40 0
11 -75 39 0
1 -3 -4 0
1 -7 -8 0
1 -11 -12 0
1 -15 -16 0
1 -19 -20 0
1 -23 -24 0
1 -27 -28 0
1 -31 -32 0
1 -35 -36 0
1 -39 -40 0
